; 
(set-info :status unknown)
(declare-fun standard_metadata.ingress_port () (_ BitVec 9))
(declare-fun standard_metadata.egress_spec () (_ BitVec 9))
(assert
 (let (($x28 (= standard_metadata.ingress_port (_ bv1 9))))
 (or (or false (= standard_metadata.ingress_port (_ bv0 9))) $x28)))
(assert
 (let (($x28 (= standard_metadata.ingress_port (_ bv1 9))))
 (let (($x29 (and true $x28)))
 (let (($x32 (and true (not (and true (= standard_metadata.ingress_port (_ bv0 9)))))))
 (let (($x25 (= standard_metadata.ingress_port (_ bv0 9))))
 (let (($x26 (and true $x25)))
 (let (($x30 (and true $x26)))
 (let ((?x44 (ite $x30 (_ bv1 9) (ite (and $x32 $x29) (_ bv0 9) standard_metadata.egress_spec))))
 (let (($x35 (= ?x44 (_ bv511 9))))
 (or $x35 (or (or false (= ?x44 (_ bv0 9))) (= ?x44 (_ bv1 9)))))))))))))
(assert
 (let ((?x40 (ite (and true (and true (= standard_metadata.ingress_port (_ bv1 9)))) 1 (- 1))))
 (let (($x25 (= standard_metadata.ingress_port (_ bv0 9))))
 (let (($x26 (and true $x25)))
 (let (($x30 (and true $x26)))
 (let ((?x43 (ite $x30 0 ?x40)))
 (let (($x28 (= standard_metadata.ingress_port (_ bv1 9))))
 (let (($x29 (and true $x28)))
 (let ((?x41 (ite (and (and true (not $x26)) $x29) (_ bv0 9) standard_metadata.egress_spec)))
 (let ((?x44 (ite $x30 (_ bv1 9) ?x41)))
 (let (($x35 (= ?x44 (_ bv511 9))))
 (and (and (not $x35) true) (= ?x43 (- 1))))))))))))))
(check-sat)

; 
(set-info :status unknown)
(declare-fun standard_metadata.ingress_port () (_ BitVec 9))
(declare-fun standard_metadata.egress_spec () (_ BitVec 9))
(assert
 (let (($x28 (= standard_metadata.ingress_port (_ bv1 9))))
 (or (or false (= standard_metadata.ingress_port (_ bv0 9))) $x28)))
(assert
 (let (($x28 (= standard_metadata.ingress_port (_ bv1 9))))
 (let (($x29 (and true $x28)))
 (let (($x32 (and true (not (and true (= standard_metadata.ingress_port (_ bv0 9)))))))
 (let (($x25 (= standard_metadata.ingress_port (_ bv0 9))))
 (let (($x26 (and true $x25)))
 (let (($x30 (and true $x26)))
 (let ((?x44 (ite $x30 (_ bv1 9) (ite (and $x32 $x29) (_ bv0 9) standard_metadata.egress_spec))))
 (let (($x35 (= ?x44 (_ bv511 9))))
 (or $x35 (or (or false (= ?x44 (_ bv0 9))) (= ?x44 (_ bv1 9)))))))))))))
(assert
 (let ((?x40 (ite (and true (and true (= standard_metadata.ingress_port (_ bv1 9)))) 1 (- 1))))
 (let (($x25 (= standard_metadata.ingress_port (_ bv0 9))))
 (let (($x26 (and true $x25)))
 (let (($x30 (and true $x26)))
 (let ((?x43 (ite $x30 0 ?x40)))
 (let (($x28 (= standard_metadata.ingress_port (_ bv1 9))))
 (let (($x29 (and true $x28)))
 (let ((?x41 (ite (and (and true (not $x26)) $x29) (_ bv0 9) standard_metadata.egress_spec)))
 (let ((?x44 (ite $x30 (_ bv1 9) ?x41)))
 (let (($x35 (= ?x44 (_ bv511 9))))
 (let (($x109 (and (not $x35) true)))
 (and $x109 (= ?x43 0))))))))))))))
(check-sat)

; 
(set-info :status unknown)
(declare-fun standard_metadata.ingress_port () (_ BitVec 9))
(declare-fun standard_metadata.egress_spec () (_ BitVec 9))
(assert
 (let (($x28 (= standard_metadata.ingress_port (_ bv1 9))))
 (or (or false (= standard_metadata.ingress_port (_ bv0 9))) $x28)))
(assert
 (let (($x28 (= standard_metadata.ingress_port (_ bv1 9))))
 (let (($x29 (and true $x28)))
 (let (($x32 (and true (not (and true (= standard_metadata.ingress_port (_ bv0 9)))))))
 (let (($x25 (= standard_metadata.ingress_port (_ bv0 9))))
 (let (($x26 (and true $x25)))
 (let (($x30 (and true $x26)))
 (let ((?x44 (ite $x30 (_ bv1 9) (ite (and $x32 $x29) (_ bv0 9) standard_metadata.egress_spec))))
 (let (($x35 (= ?x44 (_ bv511 9))))
 (or $x35 (or (or false (= ?x44 (_ bv0 9))) (= ?x44 (_ bv1 9)))))))))))))
(assert
 (let ((?x40 (ite (and true (and true (= standard_metadata.ingress_port (_ bv1 9)))) 1 (- 1))))
 (let (($x25 (= standard_metadata.ingress_port (_ bv0 9))))
 (let (($x26 (and true $x25)))
 (let (($x30 (and true $x26)))
 (let ((?x43 (ite $x30 0 ?x40)))
 (let (($x28 (= standard_metadata.ingress_port (_ bv1 9))))
 (let (($x29 (and true $x28)))
 (let ((?x41 (ite (and (and true (not $x26)) $x29) (_ bv0 9) standard_metadata.egress_spec)))
 (let ((?x44 (ite $x30 (_ bv1 9) ?x41)))
 (let (($x35 (= ?x44 (_ bv511 9))))
 (and (and (not $x35) true) (= ?x43 1)))))))))))))
(check-sat)

